65
66
67
68
69
70
72
71
45
44
43
42
41
18
20
19
8
7
9
10
11
12
13
14
15
16
17
21
40
39
38
37
23
22
24
25
36
35
26
27
30
29
28
2
1
3
4
5
6
34
33
32
31
49
50
51
52
53
54
55
56
57
58
46
47
48
59
60
79
80
81
85
86
110
109
108
107
106
105
104
87
88
103
102
101
100
99
96
95
93
94
97
98
90
89
78
77
76
75
74
73
91
92
116
117
118
119
120
121
122
123
124
125
126
127
128
129
130
134
133
132
131
115
135
136
137
138
139
140
141
142
143
144
114
113
112
111
84
83
82
61
62
63
64
65
